peakDumbCharging = 14800; 
Machine = anon_enum(16); 
machineSpeed = [3700,3700,3700,3700,3700,3700,3700,3700,3700,3700,3700,3700,3700,3700,3700,3700]; 
machineLoad = [3700,3700,3700,3700,3700,3700,3700,3700,3700,3700,3700,3700,3700,3700,3700,3700]; 
Car = anon_enum(16); 
demandCar = [4920,5400,5720,2960,4400,2320,4960,9120,280,8360,10360,3040,10880,13520,12640,2600]; 
arrivalCar = [64,63,63,61,58,56,53,51,51,50,49,46,45,39,38,29]; 
departureCar = [67,67,66,63,61,58,56,55,52,56,56,49,49,50,47,31]; 
